letting xdim be 6
letting ydim be 6
letting maxnum be 2

letting rowcounts be
[
    [2,1],
    [1,3],
    [1,2],
    [3,0],
    [4,0],
    [1,0]
]

letting colcounts be
[
    [1,0],
    [5,0],
    [2,0],
    [5,0],
    [2,1],
    [2,0]
]
